N = 20;
W = 100;
H = 100;
ItemWidth = [ 24, 18, 39, 10, 13, 34, 44, 36, 1, 12, 9, 26, 15, 16, 7, 37, 49, 6, 25, 42 ];
ItemHeight = [ 100, 99, 95, 93, 91, 83, 82, 80, 80, 74, 72, 72, 69, 69, 67, 48, 43, 42, 39, 13 ];
